NAME: R10-110518-171015.tsp
TYPE: TSP
COMMENT: Random data
DIMENSION: 10
EDGE_WEIGHT_TYPE: EXPLICIT
EDGE_WEIGHT_FORMAT: FULL_MATRIX
DISPLAY_DATA_TYPE: NO_DISPLAY
EDGE_WEIGHT_SECTION
 0 34 45 55 34 57  4 45 22 42 
44  0 84 63 56 56 65 37 72 55 
21 86  0 13 72 63 11 70 86 94 
 6 83 12  0 44 58 98 57 35 33 
21 79 77 95  0 97  1 61 94  8 
23 83 75 84 82  0 56 39 74 31 
88 62 81 44 63 70  0  9 38 39 
30  0 26 64 99 20 32  0 16 93 
78 26 88 12 11 69  2 46  0  2 
18 22  0 56  5 83 67 69 73  0 
EOF